p cnf 235 2047
1 2 3 4 5 0
6 7 8 9 10 0
11 12 13 14 15 0
16 17 18 19 20 0
21 22 23 24 25 0
26 27 28 29 30 0
31 32 33 34 35 0
36 37 38 39 40 0
41 42 43 44 45 0
46 47 48 49 50 0
51 52 53 54 55 0
56 57 58 59 60 0
61 62 63 64 65 0
66 67 68 69 70 0
71 72 73 74 75 0
76 77 78 79 80 0
81 82 83 84 85 0
86 87 88 89 90 0
91 92 93 94 95 0
96 97 98 99 100 0
101 102 103 104 105 0
106 107 108 109 110 0
111 112 113 114 115 0
116 117 118 119 120 0
121 122 123 124 125 0
126 127 128 129 130 0
131 132 133 134 135 0
136 137 138 139 140 0
141 142 143 144 145 0
146 147 148 149 150 0
151 152 153 154 155 0
156 157 158 159 160 0
161 162 163 164 165 0
166 167 168 169 170 0
171 172 173 174 175 0
176 177 178 179 180 0
181 182 183 184 185 0
186 187 188 189 190 0
191 192 193 194 195 0
196 197 198 199 200 0
201 202 203 204 205 0
206 207 208 209 210 0
211 212 213 214 215 0
216 217 218 219 220 0
221 222 223 224 225 0
226 227 228 229 230 0
231 232 233 234 235 0
-1 -6 0
-2 -7 0
-3 -8 0
-4 -9 0
-5 -10 0
-11 -6 0
-12 -7 0
-13 -8 0
-14 -9 0
-15 -10 0
-1 -16 0
-2 -17 0
-3 -18 0
-4 -19 0
-5 -20 0
-11 -21 0
-12 -22 0
-13 -23 0
-14 -24 0
-15 -25 0
-16 -21 0
-17 -22 0
-18 -23 0
-19 -24 0
-20 -25 0
-26 -6 0
-27 -7 0
-28 -8 0
-29 -9 0
-30 -10 0
-1 -31 0
-2 -32 0
-3 -33 0
-4 -34 0
-5 -35 0
-36 -6 0
-37 -7 0
-38 -8 0
-39 -9 0
-40 -10 0
-11 -31 0
-12 -32 0
-13 -33 0
-14 -34 0
-15 -35 0
-26 -16 0
-27 -17 0
-28 -18 0
-29 -19 0
-30 -20 0
-1 -41 0
-2 -42 0
-3 -43 0
-4 -44 0
-5 -45 0
-36 -21 0
-37 -22 0
-38 -23 0
-39 -24 0
-40 -25 0
-11 -46 0
-12 -47 0
-13 -48 0
-14 -49 0
-15 -50 0
-41 -21 0
-42 -22 0
-43 -23 0
-44 -24 0
-45 -25 0
-16 -46 0
-17 -47 0
-18 -48 0
-19 -49 0
-20 -50 0
-26 -51 0
-27 -52 0
-28 -53 0
-29 -54 0
-30 -55 0
-31 -51 0
-32 -52 0
-33 -53 0
-34 -54 0
-35 -55 0
-36 -51 0
-37 -52 0
-38 -53 0
-39 -54 0
-40 -55 0
-41 -51 0
-42 -52 0
-43 -53 0
-44 -54 0
-45 -55 0
-46 -51 0
-47 -52 0
-48 -53 0
-49 -54 0
-50 -55 0
-56 -6 0
-57 -7 0
-58 -8 0
-59 -9 0
-60 -10 0
-1 -61 0
-2 -62 0
-3 -63 0
-4 -64 0
-5 -65 0
-66 -6 0
-67 -7 0
-68 -8 0
-69 -9 0
-70 -10 0
-11 -61 0
-12 -62 0
-13 -63 0
-14 -64 0
-15 -65 0
-56 -16 0
-57 -17 0
-58 -18 0
-59 -19 0
-60 -20 0
-1 -71 0
-2 -72 0
-3 -73 0
-4 -74 0
-5 -75 0
-66 -21 0
-67 -22 0
-68 -23 0
-69 -24 0
-70 -25 0
-11 -76 0
-12 -77 0
-13 -78 0
-14 -79 0
-15 -80 0
-71 -21 0
-72 -22 0
-73 -23 0
-74 -24 0
-75 -25 0
-16 -76 0
-17 -77 0
-18 -78 0
-19 -79 0
-20 -80 0
-81 -6 0
-82 -7 0
-83 -8 0
-84 -9 0
-85 -10 0
-26 -61 0
-27 -62 0
-28 -63 0
-29 -64 0
-30 -65 0
-56 -31 0
-57 -32 0
-58 -33 0
-59 -34 0
-60 -35 0
-1 -86 0
-2 -87 0
-3 -88 0
-4 -89 0
-5 -90 0
-91 -6 0
-92 -7 0
-93 -8 0
-94 -9 0
-95 -10 0
-36 -61 0
-37 -62 0
-38 -63 0
-39 -64 0
-40 -65 0
-66 -31 0
-67 -32 0
-68 -33 0
-69 -34 0
-70 -35 0
-11 -86 0
-12 -87 0
-13 -88 0
-14 -89 0
-15 -90 0
-81 -16 0
-82 -17 0
-83 -18 0
-84 -19 0
-85 -20 0
-26 -71 0
-27 -72 0
-28 -73 0
-29 -74 0
-30 -75 0
-56 -41 0
-57 -42 0
-58 -43 0
-59 -44 0
-60 -45 0
-1 -96 0
-2 -97 0
-3 -98 0
-4 -99 0
-5 -100 0
-91 -21 0
-92 -22 0
-93 -23 0
-94 -24 0
-95 -25 0
-36 -76 0
-37 -77 0
-38 -78 0
-39 -79 0
-40 -80 0
-66 -46 0
-67 -47 0
-68 -48 0
-69 -49 0
-70 -50 0
-11 -101 0
-12 -102 0
-13 -103 0
-14 -104 0
-15 -105 0
-96 -21 0
-97 -22 0
-98 -23 0
-99 -24 0
-100 -25 0
-41 -76 0
-42 -77 0
-43 -78 0
-44 -79 0
-45 -80 0
-71 -46 0
-72 -47 0
-73 -48 0
-74 -49 0
-75 -50 0
-16 -101 0
-17 -102 0
-18 -103 0
-19 -104 0
-20 -105 0
-81 -51 0
-82 -52 0
-83 -53 0
-84 -54 0
-85 -55 0
-26 -106 0
-27 -107 0
-28 -108 0
-29 -109 0
-30 -110 0
-86 -51 0
-87 -52 0
-88 -53 0
-89 -54 0
-90 -55 0
-31 -106 0
-32 -107 0
-33 -108 0
-34 -109 0
-35 -110 0
-91 -51 0
-92 -52 0
-93 -53 0
-94 -54 0
-95 -55 0
-36 -106 0
-37 -107 0
-38 -108 0
-39 -109 0
-40 -110 0
-96 -51 0
-97 -52 0
-98 -53 0
-99 -54 0
-100 -55 0
-41 -106 0
-42 -107 0
-43 -108 0
-44 -109 0
-45 -110 0
-101 -51 0
-102 -52 0
-103 -53 0
-104 -54 0
-105 -55 0
-46 -106 0
-47 -107 0
-48 -108 0
-49 -109 0
-50 -110 0
-56 -111 0
-57 -112 0
-58 -113 0
-59 -114 0
-60 -115 0
-61 -111 0
-62 -112 0
-63 -113 0
-64 -114 0
-65 -115 0
-66 -111 0
-67 -112 0
-68 -113 0
-69 -114 0
-70 -115 0
-71 -111 0
-72 -112 0
-73 -113 0
-74 -114 0
-75 -115 0
-76 -111 0
-77 -112 0
-78 -113 0
-79 -114 0
-80 -115 0
-81 -111 0
-82 -112 0
-83 -113 0
-84 -114 0
-85 -115 0
-86 -111 0
-87 -112 0
-88 -113 0
-89 -114 0
-90 -115 0
-91 -111 0
-92 -112 0
-93 -113 0
-94 -114 0
-95 -115 0
-96 -111 0
-97 -112 0
-98 -113 0
-99 -114 0
-100 -115 0
-101 -111 0
-102 -112 0
-103 -113 0
-104 -114 0
-105 -115 0
-106 -111 0
-107 -112 0
-108 -113 0
-109 -114 0
-110 -115 0
-116 -6 0
-117 -7 0
-118 -8 0
-119 -9 0
-120 -10 0
-1 -121 0
-2 -122 0
-3 -123 0
-4 -124 0
-5 -125 0
-126 -6 0
-127 -7 0
-128 -8 0
-129 -9 0
-130 -10 0
-11 -121 0
-12 -122 0
-13 -123 0
-14 -124 0
-15 -125 0
-116 -16 0
-117 -17 0
-118 -18 0
-119 -19 0
-120 -20 0
-1 -131 0
-2 -132 0
-3 -133 0
-4 -134 0
-5 -135 0
-126 -21 0
-127 -22 0
-128 -23 0
-129 -24 0
-130 -25 0
-11 -136 0
-12 -137 0
-13 -138 0
-14 -139 0
-15 -140 0
-131 -21 0
-132 -22 0
-133 -23 0
-134 -24 0
-135 -25 0
-16 -136 0
-17 -137 0
-18 -138 0
-19 -139 0
-20 -140 0
-141 -6 0
-142 -7 0
-143 -8 0
-144 -9 0
-145 -10 0
-26 -121 0
-27 -122 0
-28 -123 0
-29 -124 0
-30 -125 0
-116 -31 0
-117 -32 0
-118 -33 0
-119 -34 0
-120 -35 0
-1 -146 0
-2 -147 0
-3 -148 0
-4 -149 0
-5 -150 0
-151 -6 0
-152 -7 0
-153 -8 0
-154 -9 0
-155 -10 0
-36 -121 0
-37 -122 0
-38 -123 0
-39 -124 0
-40 -125 0
-126 -31 0
-127 -32 0
-128 -33 0
-129 -34 0
-130 -35 0
-11 -146 0
-12 -147 0
-13 -148 0
-14 -149 0
-15 -150 0
-141 -16 0
-142 -17 0
-143 -18 0
-144 -19 0
-145 -20 0
-26 -131 0
-27 -132 0
-28 -133 0
-29 -134 0
-30 -135 0
-116 -41 0
-117 -42 0
-118 -43 0
-119 -44 0
-120 -45 0
-1 -156 0
-2 -157 0
-3 -158 0
-4 -159 0
-5 -160 0
-151 -21 0
-152 -22 0
-153 -23 0
-154 -24 0
-155 -25 0
-36 -136 0
-37 -137 0
-38 -138 0
-39 -139 0
-40 -140 0
-126 -46 0
-127 -47 0
-128 -48 0
-129 -49 0
-130 -50 0
-11 -161 0
-12 -162 0
-13 -163 0
-14 -164 0
-15 -165 0
-156 -21 0
-157 -22 0
-158 -23 0
-159 -24 0
-160 -25 0
-41 -136 0
-42 -137 0
-43 -138 0
-44 -139 0
-45 -140 0
-131 -46 0
-132 -47 0
-133 -48 0
-134 -49 0
-135 -50 0
-16 -161 0
-17 -162 0
-18 -163 0
-19 -164 0
-20 -165 0
-141 -51 0
-142 -52 0
-143 -53 0
-144 -54 0
-145 -55 0
-26 -166 0
-27 -167 0
-28 -168 0
-29 -169 0
-30 -170 0
-146 -51 0
-147 -52 0
-148 -53 0
-149 -54 0
-150 -55 0
-31 -166 0
-32 -167 0
-33 -168 0
-34 -169 0
-35 -170 0
-151 -51 0
-152 -52 0
-153 -53 0
-154 -54 0
-155 -55 0
-36 -166 0
-37 -167 0
-38 -168 0
-39 -169 0
-40 -170 0
-156 -51 0
-157 -52 0
-158 -53 0
-159 -54 0
-160 -55 0
-41 -166 0
-42 -167 0
-43 -168 0
-44 -169 0
-45 -170 0
-161 -51 0
-162 -52 0
-163 -53 0
-164 -54 0
-165 -55 0
-46 -166 0
-47 -167 0
-48 -168 0
-49 -169 0
-50 -170 0
-171 -6 0
-172 -7 0
-173 -8 0
-174 -9 0
-175 -10 0
-56 -121 0
-57 -122 0
-58 -123 0
-59 -124 0
-60 -125 0
-116 -61 0
-117 -62 0
-118 -63 0
-119 -64 0
-120 -65 0
-1 -176 0
-2 -177 0
-3 -178 0
-4 -179 0
-5 -180 0
-181 -6 0
-182 -7 0
-183 -8 0
-184 -9 0
-185 -10 0
-66 -121 0
-67 -122 0
-68 -123 0
-69 -124 0
-70 -125 0
-126 -61 0
-127 -62 0
-128 -63 0
-129 -64 0
-130 -65 0
-11 -176 0
-12 -177 0
-13 -178 0
-14 -179 0
-15 -180 0
-171 -16 0
-172 -17 0
-173 -18 0
-174 -19 0
-175 -20 0
-56 -131 0
-57 -132 0
-58 -133 0
-59 -134 0
-60 -135 0
-116 -71 0
-117 -72 0
-118 -73 0
-119 -74 0
-120 -75 0
-1 -186 0
-2 -187 0
-3 -188 0
-4 -189 0
-5 -190 0
-181 -21 0
-182 -22 0
-183 -23 0
-184 -24 0
-185 -25 0
-66 -136 0
-67 -137 0
-68 -138 0
-69 -139 0
-70 -140 0
-126 -76 0
-127 -77 0
-128 -78 0
-129 -79 0
-130 -80 0
-11 -191 0
-12 -192 0
-13 -193 0
-14 -194 0
-15 -195 0
-186 -21 0
-187 -22 0
-188 -23 0
-189 -24 0
-190 -25 0
-71 -136 0
-72 -137 0
-73 -138 0
-74 -139 0
-75 -140 0
-131 -76 0
-132 -77 0
-133 -78 0
-134 -79 0
-135 -80 0
-16 -191 0
-17 -192 0
-18 -193 0
-19 -194 0
-20 -195 0
-196 -6 0
-197 -7 0
-198 -8 0
-199 -9 0
-200 -10 0
-81 -121 0
-82 -122 0
-83 -123 0
-84 -124 0
-85 -125 0
-141 -61 0
-142 -62 0
-143 -63 0
-144 -64 0
-145 -65 0
-26 -176 0
-27 -177 0
-28 -178 0
-29 -179 0
-30 -180 0
-171 -31 0
-172 -32 0
-173 -33 0
-174 -34 0
-175 -35 0
-56 -146 0
-57 -147 0
-58 -148 0
-59 -149 0
-60 -150 0
-116 -86 0
-117 -87 0
-118 -88 0
-119 -89 0
-120 -90 0
-1 -201 0
-2 -202 0
-3 -203 0
-4 -204 0
-5 -205 0
-206 -6 0
-207 -7 0
-208 -8 0
-209 -9 0
-210 -10 0
-91 -121 0
-92 -122 0
-93 -123 0
-94 -124 0
-95 -125 0
-151 -61 0
-152 -62 0
-153 -63 0
-154 -64 0
-155 -65 0
-36 -176 0
-37 -177 0
-38 -178 0
-39 -179 0
-40 -180 0
-181 -31 0
-182 -32 0
-183 -33 0
-184 -34 0
-185 -35 0
-66 -146 0
-67 -147 0
-68 -148 0
-69 -149 0
-70 -150 0
-126 -86 0
-127 -87 0
-128 -88 0
-129 -89 0
-130 -90 0
-11 -201 0
-12 -202 0
-13 -203 0
-14 -204 0
-15 -205 0
-196 -16 0
-197 -17 0
-198 -18 0
-199 -19 0
-200 -20 0
-81 -131 0
-82 -132 0
-83 -133 0
-84 -134 0
-85 -135 0
-141 -71 0
-142 -72 0
-143 -73 0
-144 -74 0
-145 -75 0
-26 -186 0
-27 -187 0
-28 -188 0
-29 -189 0
-30 -190 0
-171 -41 0
-172 -42 0
-173 -43 0
-174 -44 0
-175 -45 0
-56 -156 0
-57 -157 0
-58 -158 0
-59 -159 0
-60 -160 0
-116 -96 0
-117 -97 0
-118 -98 0
-119 -99 0
-120 -100 0
-1 -211 0
-2 -212 0
-3 -213 0
-4 -214 0
-5 -215 0
-206 -21 0
-207 -22 0
-208 -23 0
-209 -24 0
-210 -25 0
-91 -136 0
-92 -137 0
-93 -138 0
-94 -139 0
-95 -140 0
-151 -76 0
-152 -77 0
-153 -78 0
-154 -79 0
-155 -80 0
-36 -191 0
-37 -192 0
-38 -193 0
-39 -194 0
-40 -195 0
-181 -46 0
-182 -47 0
-183 -48 0
-184 -49 0
-185 -50 0
-66 -161 0
-67 -162 0
-68 -163 0
-69 -164 0
-70 -165 0
-126 -101 0
-127 -102 0
-128 -103 0
-129 -104 0
-130 -105 0
-11 -216 0
-12 -217 0
-13 -218 0
-14 -219 0
-15 -220 0
-211 -21 0
-212 -22 0
-213 -23 0
-214 -24 0
-215 -25 0
-96 -136 0
-97 -137 0
-98 -138 0
-99 -139 0
-100 -140 0
-156 -76 0
-157 -77 0
-158 -78 0
-159 -79 0
-160 -80 0
-41 -191 0
-42 -192 0
-43 -193 0
-44 -194 0
-45 -195 0
-186 -46 0
-187 -47 0
-188 -48 0
-189 -49 0
-190 -50 0
-71 -161 0
-72 -162 0
-73 -163 0
-74 -164 0
-75 -165 0
-131 -101 0
-132 -102 0
-133 -103 0
-134 -104 0
-135 -105 0
-16 -216 0
-17 -217 0
-18 -218 0
-19 -219 0
-20 -220 0
-196 -51 0
-197 -52 0
-198 -53 0
-199 -54 0
-200 -55 0
-81 -166 0
-82 -167 0
-83 -168 0
-84 -169 0
-85 -170 0
-141 -106 0
-142 -107 0
-143 -108 0
-144 -109 0
-145 -110 0
-26 -221 0
-27 -222 0
-28 -223 0
-29 -224 0
-30 -225 0
-201 -51 0
-202 -52 0
-203 -53 0
-204 -54 0
-205 -55 0
-86 -166 0
-87 -167 0
-88 -168 0
-89 -169 0
-90 -170 0
-146 -106 0
-147 -107 0
-148 -108 0
-149 -109 0
-150 -110 0
-31 -221 0
-32 -222 0
-33 -223 0
-34 -224 0
-35 -225 0
-206 -51 0
-207 -52 0
-208 -53 0
-209 -54 0
-210 -55 0
-91 -166 0
-92 -167 0
-93 -168 0
-94 -169 0
-95 -170 0
-151 -106 0
-152 -107 0
-153 -108 0
-154 -109 0
-155 -110 0
-36 -221 0
-37 -222 0
-38 -223 0
-39 -224 0
-40 -225 0
-211 -51 0
-212 -52 0
-213 -53 0
-214 -54 0
-215 -55 0
-96 -166 0
-97 -167 0
-98 -168 0
-99 -169 0
-100 -170 0
-156 -106 0
-157 -107 0
-158 -108 0
-159 -109 0
-160 -110 0
-41 -221 0
-42 -222 0
-43 -223 0
-44 -224 0
-45 -225 0
-216 -51 0
-217 -52 0
-218 -53 0
-219 -54 0
-220 -55 0
-101 -166 0
-102 -167 0
-103 -168 0
-104 -169 0
-105 -170 0
-161 -106 0
-162 -107 0
-163 -108 0
-164 -109 0
-165 -110 0
-46 -221 0
-47 -222 0
-48 -223 0
-49 -224 0
-50 -225 0
-171 -111 0
-172 -112 0
-173 -113 0
-174 -114 0
-175 -115 0
-56 -226 0
-57 -227 0
-58 -228 0
-59 -229 0
-60 -230 0
-176 -111 0
-177 -112 0
-178 -113 0
-179 -114 0
-180 -115 0
-61 -226 0
-62 -227 0
-63 -228 0
-64 -229 0
-65 -230 0
-181 -111 0
-182 -112 0
-183 -113 0
-184 -114 0
-185 -115 0
-66 -226 0
-67 -227 0
-68 -228 0
-69 -229 0
-70 -230 0
-186 -111 0
-187 -112 0
-188 -113 0
-189 -114 0
-190 -115 0
-71 -226 0
-72 -227 0
-73 -228 0
-74 -229 0
-75 -230 0
-191 -111 0
-192 -112 0
-193 -113 0
-194 -114 0
-195 -115 0
-76 -226 0
-77 -227 0
-78 -228 0
-79 -229 0
-80 -230 0
-196 -111 0
-197 -112 0
-198 -113 0
-199 -114 0
-200 -115 0
-81 -226 0
-82 -227 0
-83 -228 0
-84 -229 0
-85 -230 0
-201 -111 0
-202 -112 0
-203 -113 0
-204 -114 0
-205 -115 0
-86 -226 0
-87 -227 0
-88 -228 0
-89 -229 0
-90 -230 0
-206 -111 0
-207 -112 0
-208 -113 0
-209 -114 0
-210 -115 0
-91 -226 0
-92 -227 0
-93 -228 0
-94 -229 0
-95 -230 0
-211 -111 0
-212 -112 0
-213 -113 0
-214 -114 0
-215 -115 0
-96 -226 0
-97 -227 0
-98 -228 0
-99 -229 0
-100 -230 0
-216 -111 0
-217 -112 0
-218 -113 0
-219 -114 0
-220 -115 0
-101 -226 0
-102 -227 0
-103 -228 0
-104 -229 0
-105 -230 0
-221 -111 0
-222 -112 0
-223 -113 0
-224 -114 0
-225 -115 0
-106 -226 0
-107 -227 0
-108 -228 0
-109 -229 0
-110 -230 0
-116 -231 0
-117 -232 0
-118 -233 0
-119 -234 0
-120 -235 0
-121 -231 0
-122 -232 0
-123 -233 0
-124 -234 0
-125 -235 0
-126 -231 0
-127 -232 0
-128 -233 0
-129 -234 0
-130 -235 0
-131 -231 0
-132 -232 0
-133 -233 0
-134 -234 0
-135 -235 0
-136 -231 0
-137 -232 0
-138 -233 0
-139 -234 0
-140 -235 0
-141 -231 0
-142 -232 0
-143 -233 0
-144 -234 0
-145 -235 0
-146 -231 0
-147 -232 0
-148 -233 0
-149 -234 0
-150 -235 0
-151 -231 0
-152 -232 0
-153 -233 0
-154 -234 0
-155 -235 0
-156 -231 0
-157 -232 0
-158 -233 0
-159 -234 0
-160 -235 0
-161 -231 0
-162 -232 0
-163 -233 0
-164 -234 0
-165 -235 0
-166 -231 0
-167 -232 0
-168 -233 0
-169 -234 0
-170 -235 0
-171 -231 0
-172 -232 0
-173 -233 0
-174 -234 0
-175 -235 0
-176 -231 0
-177 -232 0
-178 -233 0
-179 -234 0
-180 -235 0
-181 -231 0
-182 -232 0
-183 -233 0
-184 -234 0
-185 -235 0
-186 -231 0
-187 -232 0
-188 -233 0
-189 -234 0
-190 -235 0
-191 -231 0
-192 -232 0
-193 -233 0
-194 -234 0
-195 -235 0
-196 -231 0
-197 -232 0
-198 -233 0
-199 -234 0
-200 -235 0
-201 -231 0
-202 -232 0
-203 -233 0
-204 -234 0
-205 -235 0
-206 -231 0
-207 -232 0
-208 -233 0
-209 -234 0
-210 -235 0
-211 -231 0
-212 -232 0
-213 -233 0
-214 -234 0
-215 -235 0
-216 -231 0
-217 -232 0
-218 -233 0
-219 -234 0
-220 -235 0
-221 -231 0
-222 -232 0
-223 -233 0
-224 -234 0
-225 -235 0
-226 -231 0
-227 -232 0
-228 -233 0
-229 -234 0
-230 -235 0
-117 -1 231 0
-118 -1 231 0
-119 -1 231 0
-120 -1 231 0
-116 -2 232 0
-118 -2 232 0
-119 -2 232 0
-120 -2 232 0
-116 -3 233 0
-117 -3 233 0
-119 -3 233 0
-120 -3 233 0
-116 -4 234 0
-117 -4 234 0
-118 -4 234 0
-120 -4 234 0
-116 -5 235 0
-117 -5 235 0
-118 -5 235 0
-119 -5 235 0
-122 -6 231 0
-123 -6 231 0
-124 -6 231 0
-125 -6 231 0
-121 -7 232 0
-123 -7 232 0
-124 -7 232 0
-125 -7 232 0
-121 -8 233 0
-122 -8 233 0
-124 -8 233 0
-125 -8 233 0
-121 -9 234 0
-122 -9 234 0
-123 -9 234 0
-125 -9 234 0
-121 -10 235 0
-122 -10 235 0
-123 -10 235 0
-124 -10 235 0
-127 -11 231 0
-128 -11 231 0
-129 -11 231 0
-130 -11 231 0
-126 -12 232 0
-128 -12 232 0
-129 -12 232 0
-130 -12 232 0
-126 -13 233 0
-127 -13 233 0
-129 -13 233 0
-130 -13 233 0
-126 -14 234 0
-127 -14 234 0
-128 -14 234 0
-130 -14 234 0
-126 -15 235 0
-127 -15 235 0
-128 -15 235 0
-129 -15 235 0
-132 -16 231 0
-133 -16 231 0
-134 -16 231 0
-135 -16 231 0
-131 -17 232 0
-133 -17 232 0
-134 -17 232 0
-135 -17 232 0
-131 -18 233 0
-132 -18 233 0
-134 -18 233 0
-135 -18 233 0
-131 -19 234 0
-132 -19 234 0
-133 -19 234 0
-135 -19 234 0
-131 -20 235 0
-132 -20 235 0
-133 -20 235 0
-134 -20 235 0
-137 -21 231 0
-138 -21 231 0
-139 -21 231 0
-140 -21 231 0
-136 -22 232 0
-138 -22 232 0
-139 -22 232 0
-140 -22 232 0
-136 -23 233 0
-137 -23 233 0
-139 -23 233 0
-140 -23 233 0
-136 -24 234 0
-137 -24 234 0
-138 -24 234 0
-140 -24 234 0
-136 -25 235 0
-137 -25 235 0
-138 -25 235 0
-139 -25 235 0
-142 -26 231 0
-143 -26 231 0
-144 -26 231 0
-145 -26 231 0
-141 -27 232 0
-143 -27 232 0
-144 -27 232 0
-145 -27 232 0
-141 -28 233 0
-142 -28 233 0
-144 -28 233 0
-145 -28 233 0
-141 -29 234 0
-142 -29 234 0
-143 -29 234 0
-145 -29 234 0
-141 -30 235 0
-142 -30 235 0
-143 -30 235 0
-144 -30 235 0
-147 -31 231 0
-148 -31 231 0
-149 -31 231 0
-150 -31 231 0
-146 -32 232 0
-148 -32 232 0
-149 -32 232 0
-150 -32 232 0
-146 -33 233 0
-147 -33 233 0
-149 -33 233 0
-150 -33 233 0
-146 -34 234 0
-147 -34 234 0
-148 -34 234 0
-150 -34 234 0
-146 -35 235 0
-147 -35 235 0
-148 -35 235 0
-149 -35 235 0
-152 -36 231 0
-153 -36 231 0
-154 -36 231 0
-155 -36 231 0
-151 -37 232 0
-153 -37 232 0
-154 -37 232 0
-155 -37 232 0
-151 -38 233 0
-152 -38 233 0
-154 -38 233 0
-155 -38 233 0
-151 -39 234 0
-152 -39 234 0
-153 -39 234 0
-155 -39 234 0
-151 -40 235 0
-152 -40 235 0
-153 -40 235 0
-154 -40 235 0
-157 -41 231 0
-158 -41 231 0
-159 -41 231 0
-160 -41 231 0
-156 -42 232 0
-158 -42 232 0
-159 -42 232 0
-160 -42 232 0
-156 -43 233 0
-157 -43 233 0
-159 -43 233 0
-160 -43 233 0
-156 -44 234 0
-157 -44 234 0
-158 -44 234 0
-160 -44 234 0
-156 -45 235 0
-157 -45 235 0
-158 -45 235 0
-159 -45 235 0
-162 -46 231 0
-163 -46 231 0
-164 -46 231 0
-165 -46 231 0
-161 -47 232 0
-163 -47 232 0
-164 -47 232 0
-165 -47 232 0
-161 -48 233 0
-162 -48 233 0
-164 -48 233 0
-165 -48 233 0
-161 -49 234 0
-162 -49 234 0
-163 -49 234 0
-165 -49 234 0
-161 -50 235 0
-162 -50 235 0
-163 -50 235 0
-164 -50 235 0
-167 -51 231 0
-168 -51 231 0
-169 -51 231 0
-170 -51 231 0
-166 -52 232 0
-168 -52 232 0
-169 -52 232 0
-170 -52 232 0
-166 -53 233 0
-167 -53 233 0
-169 -53 233 0
-170 -53 233 0
-166 -54 234 0
-167 -54 234 0
-168 -54 234 0
-170 -54 234 0
-166 -55 235 0
-167 -55 235 0
-168 -55 235 0
-169 -55 235 0
-172 -56 231 0
-173 -56 231 0
-174 -56 231 0
-175 -56 231 0
-171 -57 232 0
-173 -57 232 0
-174 -57 232 0
-175 -57 232 0
-171 -58 233 0
-172 -58 233 0
-174 -58 233 0
-175 -58 233 0
-171 -59 234 0
-172 -59 234 0
-173 -59 234 0
-175 -59 234 0
-171 -60 235 0
-172 -60 235 0
-173 -60 235 0
-174 -60 235 0
-177 -61 231 0
-178 -61 231 0
-179 -61 231 0
-180 -61 231 0
-176 -62 232 0
-178 -62 232 0
-179 -62 232 0
-180 -62 232 0
-176 -63 233 0
-177 -63 233 0
-179 -63 233 0
-180 -63 233 0
-176 -64 234 0
-177 -64 234 0
-178 -64 234 0
-180 -64 234 0
-176 -65 235 0
-177 -65 235 0
-178 -65 235 0
-179 -65 235 0
-182 -66 231 0
-183 -66 231 0
-184 -66 231 0
-185 -66 231 0
-181 -67 232 0
-183 -67 232 0
-184 -67 232 0
-185 -67 232 0
-181 -68 233 0
-182 -68 233 0
-184 -68 233 0
-185 -68 233 0
-181 -69 234 0
-182 -69 234 0
-183 -69 234 0
-185 -69 234 0
-181 -70 235 0
-182 -70 235 0
-183 -70 235 0
-184 -70 235 0
-187 -71 231 0
-188 -71 231 0
-189 -71 231 0
-190 -71 231 0
-186 -72 232 0
-188 -72 232 0
-189 -72 232 0
-190 -72 232 0
-186 -73 233 0
-187 -73 233 0
-189 -73 233 0
-190 -73 233 0
-186 -74 234 0
-187 -74 234 0
-188 -74 234 0
-190 -74 234 0
-186 -75 235 0
-187 -75 235 0
-188 -75 235 0
-189 -75 235 0
-192 -76 231 0
-193 -76 231 0
-194 -76 231 0
-195 -76 231 0
-191 -77 232 0
-193 -77 232 0
-194 -77 232 0
-195 -77 232 0
-191 -78 233 0
-192 -78 233 0
-194 -78 233 0
-195 -78 233 0
-191 -79 234 0
-192 -79 234 0
-193 -79 234 0
-195 -79 234 0
-191 -80 235 0
-192 -80 235 0
-193 -80 235 0
-194 -80 235 0
-197 -81 231 0
-198 -81 231 0
-199 -81 231 0
-200 -81 231 0
-196 -82 232 0
-198 -82 232 0
-199 -82 232 0
-200 -82 232 0
-196 -83 233 0
-197 -83 233 0
-199 -83 233 0
-200 -83 233 0
-196 -84 234 0
-197 -84 234 0
-198 -84 234 0
-200 -84 234 0
-196 -85 235 0
-197 -85 235 0
-198 -85 235 0
-199 -85 235 0
-202 -86 231 0
-203 -86 231 0
-204 -86 231 0
-205 -86 231 0
-201 -87 232 0
-203 -87 232 0
-204 -87 232 0
-205 -87 232 0
-201 -88 233 0
-202 -88 233 0
-204 -88 233 0
-205 -88 233 0
-201 -89 234 0
-202 -89 234 0
-203 -89 234 0
-205 -89 234 0
-201 -90 235 0
-202 -90 235 0
-203 -90 235 0
-204 -90 235 0
-207 -91 231 0
-208 -91 231 0
-209 -91 231 0
-210 -91 231 0
-206 -92 232 0
-208 -92 232 0
-209 -92 232 0
-210 -92 232 0
-206 -93 233 0
-207 -93 233 0
-209 -93 233 0
-210 -93 233 0
-206 -94 234 0
-207 -94 234 0
-208 -94 234 0
-210 -94 234 0
-206 -95 235 0
-207 -95 235 0
-208 -95 235 0
-209 -95 235 0
-212 -96 231 0
-213 -96 231 0
-214 -96 231 0
-215 -96 231 0
-211 -97 232 0
-213 -97 232 0
-214 -97 232 0
-215 -97 232 0
-211 -98 233 0
-212 -98 233 0
-214 -98 233 0
-215 -98 233 0
-211 -99 234 0
-212 -99 234 0
-213 -99 234 0
-215 -99 234 0
-211 -100 235 0
-212 -100 235 0
-213 -100 235 0
-214 -100 235 0
-217 -101 231 0
-218 -101 231 0
-219 -101 231 0
-220 -101 231 0
-216 -102 232 0
-218 -102 232 0
-219 -102 232 0
-220 -102 232 0
-216 -103 233 0
-217 -103 233 0
-219 -103 233 0
-220 -103 233 0
-216 -104 234 0
-217 -104 234 0
-218 -104 234 0
-220 -104 234 0
-216 -105 235 0
-217 -105 235 0
-218 -105 235 0
-219 -105 235 0
-222 -106 231 0
-223 -106 231 0
-224 -106 231 0
-225 -106 231 0
-221 -107 232 0
-223 -107 232 0
-224 -107 232 0
-225 -107 232 0
-221 -108 233 0
-222 -108 233 0
-224 -108 233 0
-225 -108 233 0
-221 -109 234 0
-222 -109 234 0
-223 -109 234 0
-225 -109 234 0
-221 -110 235 0
-222 -110 235 0
-223 -110 235 0
-224 -110 235 0
-227 -111 231 0
-228 -111 231 0
-229 -111 231 0
-230 -111 231 0
-226 -112 232 0
-228 -112 232 0
-229 -112 232 0
-230 -112 232 0
-226 -113 233 0
-227 -113 233 0
-229 -113 233 0
-230 -113 233 0
-226 -114 234 0
-227 -114 234 0
-228 -114 234 0
-230 -114 234 0
-226 -115 235 0
-227 -115 235 0
-228 -115 235 0
-229 -115 235 0
-172 -116 226 0
-173 -116 226 0
-174 -116 226 0
-175 -116 226 0
-171 -117 227 0
-173 -117 227 0
-174 -117 227 0
-175 -117 227 0
-171 -118 228 0
-172 -118 228 0
-174 -118 228 0
-175 -118 228 0
-171 -119 229 0
-172 -119 229 0
-173 -119 229 0
-175 -119 229 0
-171 -120 230 0
-172 -120 230 0
-173 -120 230 0
-174 -120 230 0
-177 -121 226 0
-178 -121 226 0
-179 -121 226 0
-180 -121 226 0
-176 -122 227 0
-178 -122 227 0
-179 -122 227 0
-180 -122 227 0
-176 -123 228 0
-177 -123 228 0
-179 -123 228 0
-180 -123 228 0
-176 -124 229 0
-177 -124 229 0
-178 -124 229 0
-180 -124 229 0
-176 -125 230 0
-177 -125 230 0
-178 -125 230 0
-179 -125 230 0
-182 -126 226 0
-183 -126 226 0
-184 -126 226 0
-185 -126 226 0
-181 -127 227 0
-183 -127 227 0
-184 -127 227 0
-185 -127 227 0
-181 -128 228 0
-182 -128 228 0
-184 -128 228 0
-185 -128 228 0
-181 -129 229 0
-182 -129 229 0
-183 -129 229 0
-185 -129 229 0
-181 -130 230 0
-182 -130 230 0
-183 -130 230 0
-184 -130 230 0
-187 -131 226 0
-188 -131 226 0
-189 -131 226 0
-190 -131 226 0
-186 -132 227 0
-188 -132 227 0
-189 -132 227 0
-190 -132 227 0
-186 -133 228 0
-187 -133 228 0
-189 -133 228 0
-190 -133 228 0
-186 -134 229 0
-187 -134 229 0
-188 -134 229 0
-190 -134 229 0
-186 -135 230 0
-187 -135 230 0
-188 -135 230 0
-189 -135 230 0
-192 -136 226 0
-193 -136 226 0
-194 -136 226 0
-195 -136 226 0
-191 -137 227 0
-193 -137 227 0
-194 -137 227 0
-195 -137 227 0
-191 -138 228 0
-192 -138 228 0
-194 -138 228 0
-195 -138 228 0
-191 -139 229 0
-192 -139 229 0
-193 -139 229 0
-195 -139 229 0
-191 -140 230 0
-192 -140 230 0
-193 -140 230 0
-194 -140 230 0
-197 -141 226 0
-198 -141 226 0
-199 -141 226 0
-200 -141 226 0
-196 -142 227 0
-198 -142 227 0
-199 -142 227 0
-200 -142 227 0
-196 -143 228 0
-197 -143 228 0
-199 -143 228 0
-200 -143 228 0
-196 -144 229 0
-197 -144 229 0
-198 -144 229 0
-200 -144 229 0
-196 -145 230 0
-197 -145 230 0
-198 -145 230 0
-199 -145 230 0
-202 -146 226 0
-203 -146 226 0
-204 -146 226 0
-205 -146 226 0
-201 -147 227 0
-203 -147 227 0
-204 -147 227 0
-205 -147 227 0
-201 -148 228 0
-202 -148 228 0
-204 -148 228 0
-205 -148 228 0
-201 -149 229 0
-202 -149 229 0
-203 -149 229 0
-205 -149 229 0
-201 -150 230 0
-202 -150 230 0
-203 -150 230 0
-204 -150 230 0
-207 -151 226 0
-208 -151 226 0
-209 -151 226 0
-210 -151 226 0
-206 -152 227 0
-208 -152 227 0
-209 -152 227 0
-210 -152 227 0
-206 -153 228 0
-207 -153 228 0
-209 -153 228 0
-210 -153 228 0
-206 -154 229 0
-207 -154 229 0
-208 -154 229 0
-210 -154 229 0
-206 -155 230 0
-207 -155 230 0
-208 -155 230 0
-209 -155 230 0
-212 -156 226 0
-213 -156 226 0
-214 -156 226 0
-215 -156 226 0
-211 -157 227 0
-213 -157 227 0
-214 -157 227 0
-215 -157 227 0
-211 -158 228 0
-212 -158 228 0
-214 -158 228 0
-215 -158 228 0
-211 -159 229 0
-212 -159 229 0
-213 -159 229 0
-215 -159 229 0
-211 -160 230 0
-212 -160 230 0
-213 -160 230 0
-214 -160 230 0
-217 -161 226 0
-218 -161 226 0
-219 -161 226 0
-220 -161 226 0
-216 -162 227 0
-218 -162 227 0
-219 -162 227 0
-220 -162 227 0
-216 -163 228 0
-217 -163 228 0
-219 -163 228 0
-220 -163 228 0
-216 -164 229 0
-217 -164 229 0
-218 -164 229 0
-220 -164 229 0
-216 -165 230 0
-217 -165 230 0
-218 -165 230 0
-219 -165 230 0
-222 -166 226 0
-223 -166 226 0
-224 -166 226 0
-225 -166 226 0
-221 -167 227 0
-223 -167 227 0
-224 -167 227 0
-225 -167 227 0
-221 -168 228 0
-222 -168 228 0
-224 -168 228 0
-225 -168 228 0
-221 -169 229 0
-222 -169 229 0
-223 -169 229 0
-225 -169 229 0
-221 -170 230 0
-222 -170 230 0
-223 -170 230 0
-224 -170 230 0
-197 -171 221 0
-198 -171 221 0
-199 -171 221 0
-200 -171 221 0
-196 -172 222 0
-198 -172 222 0
-199 -172 222 0
-200 -172 222 0
-196 -173 223 0
-197 -173 223 0
-199 -173 223 0
-200 -173 223 0
-196 -174 224 0
-197 -174 224 0
-198 -174 224 0
-200 -174 224 0
-196 -175 225 0
-197 -175 225 0
-198 -175 225 0
-199 -175 225 0
-202 -176 221 0
-203 -176 221 0
-204 -176 221 0
-205 -176 221 0
-201 -177 222 0
-203 -177 222 0
-204 -177 222 0
-205 -177 222 0
-201 -178 223 0
-202 -178 223 0
-204 -178 223 0
-205 -178 223 0
-201 -179 224 0
-202 -179 224 0
-203 -179 224 0
-205 -179 224 0
-201 -180 225 0
-202 -180 225 0
-203 -180 225 0
-204 -180 225 0
-207 -181 221 0
-208 -181 221 0
-209 -181 221 0
-210 -181 221 0
-206 -182 222 0
-208 -182 222 0
-209 -182 222 0
-210 -182 222 0
-206 -183 223 0
-207 -183 223 0
-209 -183 223 0
-210 -183 223 0
-206 -184 224 0
-207 -184 224 0
-208 -184 224 0
-210 -184 224 0
-206 -185 225 0
-207 -185 225 0
-208 -185 225 0
-209 -185 225 0
-212 -186 221 0
-213 -186 221 0
-214 -186 221 0
-215 -186 221 0
-211 -187 222 0
-213 -187 222 0
-214 -187 222 0
-215 -187 222 0
-211 -188 223 0
-212 -188 223 0
-214 -188 223 0
-215 -188 223 0
-211 -189 224 0
-212 -189 224 0
-213 -189 224 0
-215 -189 224 0
-211 -190 225 0
-212 -190 225 0
-213 -190 225 0
-214 -190 225 0
-217 -191 221 0
-218 -191 221 0
-219 -191 221 0
-220 -191 221 0
-216 -192 222 0
-218 -192 222 0
-219 -192 222 0
-220 -192 222 0
-216 -193 223 0
-217 -193 223 0
-219 -193 223 0
-220 -193 223 0
-216 -194 224 0
-217 -194 224 0
-218 -194 224 0
-220 -194 224 0
-216 -195 225 0
-217 -195 225 0
-218 -195 225 0
-219 -195 225 0
-207 -196 216 0
-208 -196 216 0
-209 -196 216 0
-210 -196 216 0
-206 -197 217 0
-208 -197 217 0
-209 -197 217 0
-210 -197 217 0
-206 -198 218 0
-207 -198 218 0
-209 -198 218 0
-210 -198 218 0
-206 -199 219 0
-207 -199 219 0
-208 -199 219 0
-210 -199 219 0
-206 -200 220 0
-207 -200 220 0
-208 -200 220 0
-209 -200 220 0
-212 -201 216 0
-213 -201 216 0
-214 -201 216 0
-215 -201 216 0
-211 -202 217 0
-213 -202 217 0
-214 -202 217 0
-215 -202 217 0
-211 -203 218 0
-212 -203 218 0
-214 -203 218 0
-215 -203 218 0
-211 -204 219 0
-212 -204 219 0
-213 -204 219 0
-215 -204 219 0
-211 -205 220 0
-212 -205 220 0
-213 -205 220 0
-214 -205 220 0
